Homework/HW4/ReservoirOperations.gms.log

--- Job ReservoirOperations.gms Start 12/03/25 19:27:58 51.1.0 2d039df5 DAX-DAC arm 64bit/macOS
--- Applying:
    /Library/Frameworks/GAMS.framework/Versions/51/Resources/gmsprmun.txt
--- GAMS Parameters defined
    Input "/Users/anabelle/Documents/Systems Analysis/CEE-5410-Myers/Homework/HW5/ReservoirOperations.gms"
    PageSize 0
    ScrDir "/Users/anabelle/Documents/Systems Analysis/CEE-5410-Myers/Homework/HW4/225a/"
    SysDir /Library/Frameworks/GAMS.framework/Versions/51/Resources/
    LogOption 3
    AppendLog 1
    ErrMsg 1
    ErrorLog 99
    IDE 1
    LstTitleLeftAligned 1
Licensee: GAMS Demo, for EULA and demo limitations see   G250826+0003Cc-GEN
          https://www.gams.com/latest/docs/UG%5FLicense.html         DC0000
          /Library/Frameworks/GAMS.framework/Versions/51/Resources/gamslice.txt
          v:2                                                              
          Demo license for demonstration and instructional purposes only
System information: 8 physical cores and 8 Gb physical memory detected
GAMS 51.1.0   Copyright (C) 1987-2025 GAMS Development. All rights reserved
--- Starting compilation
--- ReservoirOperations.gms(90) 3 Mb
--- Starting execution: elapsed 0:00:00.005
--- ReservoirOperations.gms(87) 4 Mb
--- Generating LP model RESERVOIR
--- ReservoirOperations.gms(90) 4 Mb
---   26 rows  25 columns  67 non-zeroes
--- Range statistics (absolute non-zero finite values)
--- RHS       [min, max] : [ 1.000E+00, 9.000E+00] - Zero values observed as well
--- Bound     [min, max] : [        NA,        NA] - Zero values observed as well
--- Matrix    [min, max] : [ 1.000E+00, 2.200E+00]
--- Executing CPLEX (Solvelink=2): elapsed 0:00:00.012

IBM ILOG CPLEX   51.1.0 2d039df5 Sep 13, 2025          DAC arm 64bit/macOS    

*** This solver runs with a demo license. No commercial use.

*** Error Cannot open parameter file "/Users/anabelle/Documents/Systems Analysis/CEE-5410-Myers/Homework/HW4/cplex.opt"
*** Error Error code = 2; No such file or directory

--- GMO setup time: 0.00s
--- GMO memory 0.50 Mb (peak 0.50 Mb)
--- Dictionary memory 0.00 Mb
--- Cplex 22.1.2.0 link memory 0.00 Mb (peak 0.00 Mb)
--- Starting Cplex

Version identifier: 22.1.2.0 | 2024-12-02 | 8bd2200c8
CPXPARAM_Advance                                 0
CPXPARAM_MIP_Display                             4
CPXPARAM_MIP_Pool_Capacity                       0
3036                                             1
CPXPARAM_MIP_Tolerances_AbsMIPGap                0
Tried aggregator 1 time.
LP Presolve eliminated 13 rows and 1 columns.
Reduced LP has 12 rows, 24 columns, and 41 nonzeros.
Presolve time = 0.00 sec. (0.02 ticks)
Initializing dual steep norms . . .

Iteration log . . .
Iteration:     1   Dual infeasibility =             9.500000
Iteration:    11   Dual objective     =            67.400000

--- LP status (1): optimal.
--- Cplex Time: 0.01sec (det. 0.05 ticks)


Optimal solution found
Objective:           51.600000

--- Reading solution for model RESERVOIR
*** Status: Normal completion
--- Job ReservoirOperations.gms Stop 12/03/25 19:27:58 elapsed 0:00:00.063
